c Maximum weighted clique instances generated from exactcolors.
c cutoff: 10900932.
c A clique of value > scalef (10900932) defines an improving stable sets for coloring.
p edge 49 0
n 1 10900932
n 2 10900932
n 3 10900932
n 4 10900932
n 5 10900932
n 6 10900932
n 7 10900932
n 8 10900932
n 9 10900932
n 10 10900932
n 11 10900932
n 12 10900932
n 13 10900932
n 14 10900932
n 15 10900932
n 16 10900932
n 17 10900932
n 18 10900932
n 19 10900932
n 20 10900932
n 21 10900932
n 22 10900932
n 23 10900932
n 24 10900932
n 25 10900932
n 26 10900932
n 27 10900932
n 28 10900932
n 29 10900932
n 30 10900932
n 31 10900932
n 32 10900932
n 33 10900932
n 34 10900932
n 35 10900932
n 36 10900932
n 37 10900932
n 38 10900932
n 39 10900932
n 40 10900932
n 41 10900932
n 42 10900932
n 43 10900932
n 44 10900932
n 45 10900932
n 46 10900932
n 47 10900932
n 48 10900932
n 49 10900932
